p cnf 791 2321
-1 -2 51 0
1 -2 -51 0
-1 2 -51 0
1 2 51 0
-3 -4 52 0
3 -4 -52 0
-3 4 -52 0
3 4 52 0
-5 -6 53 0
5 -6 -53 0
-5 6 -53 0
5 6 53 0
7 8 54 0
-7 8 -54 0
7 -8 -54 0
-7 -8 54 0
-11 -13 55 0
11 -13 -55 0
-11 13 -55 0
11 13 55 0
15 17 56 0
-15 17 -56 0
15 -17 -56 0
-15 -17 56 0
20 21 57 0
-20 21 -57 0
20 -21 -57 0
-20 -21 57 0
-24 -25 58 0
24 -25 -58 0
-24 25 -58 0
24 25 58 0
28 -30 59 0
-28 -30 -59 0
28 30 -59 0
-28 30 59 0
-31 33 60 0
31 33 -60 0
-31 -33 -60 0
31 -33 60 0
34 -36 61 0
-34 -36 -61 0
34 36 -61 0
-34 36 61 0
38 42 62 0
-38 42 -62 0
38 -42 -62 0
-38 -42 62 0
-43 45 63 0
43 45 -63 0
-43 -45 -63 0
43 -45 63 0
-46 -47 64 0
46 -47 -64 0
-46 47 -64 0
46 47 64 0
48 -49 65 0
-48 -49 -65 0
48 49 -65 0
-48 49 65 0
51 -52 66 0
-51 -52 -66 0
51 52 -66 0
-51 52 66 0
53 -54 67 0
-53 -54 -67 0
53 54 -67 0
-53 54 67 0
55 -56 68 0
-55 -56 -68 0
55 56 -68 0
-55 56 68 0
57 -58 69 0
-57 -58 -69 0
57 58 -69 0
-57 58 69 0
59 -60 70 0
-59 -60 -70 0
59 60 -70 0
-59 60 70 0
61 -62 71 0
-61 -62 -71 0
61 62 -71 0
-61 62 71 0
63 -64 72 0
-63 -64 -72 0
63 64 -72 0
-63 64 72 0
65 -66 73 0
-65 -66 -73 0
65 66 -73 0
-65 66 73 0
67 -68 74 0
-67 -68 -74 0
67 68 -74 0
-67 68 74 0
69 -70 75 0
-69 -70 -75 0
69 70 -75 0
-69 70 75 0
71 -72 76 0
-71 -72 -76 0
71 72 -76 0
-71 72 76 0
73 -74 77 0
-73 -74 -77 0
73 74 -77 0
-73 74 77 0
75 -76 78 0
-75 -76 -78 0
75 76 -78 0
-75 76 78 0
77 78 0
-77 -78 0
-3 -5 79 0
3 -5 -79 0
-3 5 -79 0
3 5 79 0
-9 -10 80 0
9 -10 -80 0
-9 10 -80 0
9 10 80 0
-12 15 81 0
12 15 -81 0
-12 -15 -81 0
12 -15 81 0
-16 17 82 0
16 17 -82 0
-16 -17 -82 0
16 -17 82 0
-18 -20 83 0
18 -20 -83 0
-18 20 -83 0
18 20 83 0
21 -23 84 0
-21 -23 -84 0
21 23 -84 0
-21 23 84 0
-25 26 85 0
25 26 -85 0
-25 -26 -85 0
25 -26 85 0
-27 -30 86 0
27 -30 -86 0
-27 30 -86 0
27 30 86 0
31 -35 87 0
-31 -35 -87 0
31 35 -87 0
-31 35 87 0
36 -38 88 0
-36 -38 -88 0
36 38 -88 0
-36 38 88 0
-46 -48 89 0
46 -48 -89 0
-46 48 -89 0
46 48 89 0
79 -80 90 0
-79 -80 -90 0
79 80 -90 0
-79 80 90 0
81 -82 91 0
-81 -82 -91 0
81 82 -91 0
-81 82 91 0
83 -84 92 0
-83 -84 -92 0
83 84 -92 0
-83 84 92 0
85 -86 93 0
-85 -86 -93 0
85 86 -93 0
-85 86 93 0
87 -88 94 0
-87 -88 -94 0
87 88 -94 0
-87 88 94 0
89 -90 95 0
-89 -90 -95 0
89 90 -95 0
-89 90 95 0
91 -92 96 0
-91 -92 -96 0
91 92 -96 0
-91 92 96 0
93 -94 97 0
-93 -94 -97 0
93 94 -97 0
-93 94 97 0
-95 -96 97 0
95 -96 -97 0
-95 96 -97 0
95 96 97 0
-1 -2 98 0
1 -2 -98 0
-1 2 -98 0
1 2 98 0
3 5 99 0
-3 5 -99 0
3 -5 -99 0
-3 -5 99 0
-6 -7 100 0
6 -7 -100 0
-6 7 -100 0
6 7 100 0
-15 16 101 0
15 16 -101 0
-15 -16 -101 0
15 -16 101 0
-17 18 102 0
17 18 -102 0
-17 -18 -102 0
17 -18 102 0
20 -24 103 0
-20 -24 -103 0
20 24 -103 0
-20 24 103 0
-25 28 104 0
25 28 -104 0
-25 -28 -104 0
25 -28 104 0
-29 -30 105 0
29 -30 -105 0
-29 30 -105 0
29 30 105 0
32 34 106 0
-32 34 -106 0
32 -34 -106 0
-32 -34 106 0
35 40 107 0
-35 40 -107 0
35 -40 -107 0
-35 -40 107 0
41 42 108 0
-41 42 -108 0
41 -42 -108 0
-41 -42 108 0
-44 -47 109 0
44 -47 -109 0
-44 47 -109 0
44 47 109 0
97 -98 110 0
-97 -98 -110 0
97 98 -110 0
-97 98 110 0
99 -100 111 0
-99 -100 -111 0
99 100 -111 0
-99 100 111 0
101 -102 112 0
-101 -102 -112 0
101 102 -112 0
-101 102 112 0
103 -104 113 0
-103 -104 -113 0
103 104 -113 0
-103 104 113 0
105 -106 114 0
-105 -106 -114 0
105 106 -114 0
-105 106 114 0
107 -108 115 0
-107 -108 -115 0
107 108 -115 0
-107 108 115 0
109 -110 116 0
-109 -110 -116 0
109 110 -116 0
-109 110 116 0
111 -112 117 0
-111 -112 -117 0
111 112 -117 0
-111 112 117 0
113 -114 118 0
-113 -114 -118 0
113 114 -118 0
-113 114 118 0
115 -116 119 0
-115 -116 -119 0
115 116 -119 0
-115 116 119 0
117 -118 120 0
-117 -118 -120 0
117 118 -120 0
-117 118 120 0
119 120 0
-119 -120 0
4 -5 121 0
-4 -5 -121 0
4 5 -121 0
-4 5 121 0
-6 -7 122 0
6 -7 -122 0
-6 7 -122 0
6 7 122 0
9 10 123 0
-9 10 -123 0
9 -10 -123 0
-9 -10 123 0
-13 -14 124 0
13 -14 -124 0
-13 14 -124 0
13 14 124 0
-16 -17 125 0
16 -17 -125 0
-16 17 -125 0
16 17 125 0
18 19 126 0
-18 19 -126 0
18 -19 -126 0
-18 -19 126 0
22 -24 127 0
-22 -24 -127 0
22 24 -127 0
-22 24 127 0
-26 -29 128 0
26 -29 -128 0
-26 29 -128 0
26 29 128 0
-30 37 129 0
30 37 -129 0
-30 -37 -129 0
30 -37 129 0
38 -39 130 0
-38 -39 -130 0
38 39 -130 0
-38 39 130 0
-40 41 131 0
40 41 -131 0
-40 -41 -131 0
40 -41 131 0
-45 -50 132 0
45 -50 -132 0
-45 50 -132 0
45 50 132 0
121 -122 133 0
-121 -122 -133 0
121 122 -133 0
-121 122 133 0
123 -124 134 0
-123 -124 -134 0
123 124 -134 0
-123 124 134 0
125 -126 135 0
-125 -126 -135 0
125 126 -135 0
-125 126 135 0
127 -128 136 0
-127 -128 -136 0
127 128 -136 0
-127 128 136 0
129 -130 137 0
-129 -130 -137 0
129 130 -137 0
-129 130 137 0
131 -132 138 0
-131 -132 -138 0
131 132 -138 0
-131 132 138 0
133 -134 139 0
-133 -134 -139 0
133 134 -139 0
-133 134 139 0
135 -136 140 0
-135 -136 -140 0
135 136 -140 0
-135 136 140 0
137 -138 141 0
-137 -138 -141 0
137 138 -141 0
-137 138 141 0
-139 -140 141 0
139 -140 -141 0
-139 140 -141 0
139 140 141 0
1 -2 142 0
-1 -2 -142 0
1 2 -142 0
-1 2 142 0
-3 -8 143 0
3 -8 -143 0
-3 8 -143 0
3 8 143 0
-9 10 144 0
9 10 -144 0
-9 -10 -144 0
9 -10 144 0
-12 14 145 0
12 14 -145 0
-12 -14 -145 0
12 -14 145 0
16 -19 146 0
-16 -19 -146 0
16 19 -146 0
-16 19 146 0
-21 25 147 0
21 25 -147 0
-21 -25 -147 0
21 -25 147 0
26 -27 148 0
-26 -27 -148 0
26 27 -148 0
-26 27 148 0
29 -30 149 0
-29 -30 -149 0
29 30 -149 0
-29 30 149 0
31 34 150 0
-31 34 -150 0
31 -34 -150 0
-31 -34 150 0
35 37 151 0
-35 37 -151 0
35 -37 -151 0
-35 -37 151 0
38 40 152 0
-38 40 -152 0
38 -40 -152 0
-38 -40 152 0
-41 -42 153 0
41 -42 -153 0
-41 42 -153 0
41 42 153 0
-43 44 154 0
43 44 -154 0
-43 -44 -154 0
43 -44 154 0
45 46 155 0
-45 46 -155 0
45 -46 -155 0
-45 -46 155 0
47 48 156 0
-47 48 -156 0
47 -48 -156 0
-47 -48 156 0
49 50 157 0
-49 50 -157 0
49 -50 -157 0
-49 -50 157 0
142 -143 158 0
-142 -143 -158 0
142 143 -158 0
-142 143 158 0
144 -145 159 0
-144 -145 -159 0
144 145 -159 0
-144 145 159 0
146 -147 160 0
-146 -147 -160 0
146 147 -160 0
-146 147 160 0
148 -149 161 0
-148 -149 -161 0
148 149 -161 0
-148 149 161 0
150 -151 162 0
-150 -151 -162 0
150 151 -162 0
-150 151 162 0
152 -153 163 0
-152 -153 -163 0
152 153 -163 0
-152 153 163 0
154 -155 164 0
-154 -155 -164 0
154 155 -164 0
-154 155 164 0
156 -157 165 0
-156 -157 -165 0
156 157 -165 0
-156 157 165 0
158 -159 166 0
-158 -159 -166 0
158 159 -166 0
-158 159 166 0
160 -161 167 0
-160 -161 -167 0
160 161 -167 0
-160 161 167 0
162 -163 168 0
-162 -163 -168 0
162 163 -168 0
-162 163 168 0
164 -165 169 0
-164 -165 -169 0
164 165 -169 0
-164 165 169 0
166 -167 170 0
-166 -167 -170 0
166 167 -170 0
-166 167 170 0
168 -169 171 0
-168 -169 -171 0
168 169 -171 0
-168 169 171 0
170 171 0
-170 -171 0
-1 -2 172 0
1 -2 -172 0
-1 2 -172 0
1 2 172 0
-4 -5 173 0
4 -5 -173 0
-4 5 -173 0
4 5 173 0
6 11 174 0
-6 11 -174 0
6 -11 -174 0
-6 -11 174 0
12 15 175 0
-12 15 -175 0
12 -15 -175 0
-12 -15 175 0
16 17 176 0
-16 17 -176 0
16 -17 -176 0
-16 -17 176 0
21 23 177 0
-21 23 -177 0
21 -23 -177 0
-21 -23 177 0
-24 -25 178 0
24 -25 -178 0
-24 25 -178 0
24 25 178 0
27 31 179 0
-27 31 -179 0
27 -31 -179 0
-27 -31 179 0
-34 -35 180 0
34 -35 -180 0
-34 35 -180 0
34 35 180 0
-36 38 181 0
36 38 -181 0
-36 -38 -181 0
36 -38 181 0
40 41 182 0
-40 41 -182 0
40 -41 -182 0
-40 -41 182 0
42 43 183 0
-42 43 -183 0
42 -43 -183 0
-42 -43 183 0
-47 -48 184 0
47 -48 -184 0
-47 48 -184 0
47 48 184 0
-49 -50 185 0
49 -50 -185 0
-49 50 -185 0
49 50 185 0
172 -173 186 0
-172 -173 -186 0
172 173 -186 0
-172 173 186 0
174 -175 187 0
-174 -175 -187 0
174 175 -187 0
-174 175 187 0
176 -177 188 0
-176 -177 -188 0
176 177 -188 0
-176 177 188 0
178 -179 189 0
-178 -179 -189 0
178 179 -189 0
-178 179 189 0
180 -181 190 0
-180 -181 -190 0
180 181 -190 0
-180 181 190 0
182 -183 191 0
-182 -183 -191 0
182 183 -191 0
-182 183 191 0
184 -185 192 0
-184 -185 -192 0
184 185 -192 0
-184 185 192 0
186 -187 193 0
-186 -187 -193 0
186 187 -193 0
-186 187 193 0
188 -189 194 0
-188 -189 -194 0
188 189 -194 0
-188 189 194 0
190 -191 195 0
-190 -191 -195 0
190 191 -195 0
-190 191 195 0
192 -193 196 0
-192 -193 -196 0
192 193 -196 0
-192 193 196 0
194 -195 197 0
-194 -195 -197 0
194 195 -197 0
-194 195 197 0
196 197 0
-196 -197 0
4 -5 198 0
-4 -5 -198 0
4 5 -198 0
-4 5 198 0
6 11 199 0
-6 11 -199 0
6 -11 -199 0
-6 -11 199 0
-12 16 200 0
12 16 -200 0
-12 -16 -200 0
12 -16 200 0
-17 -20 201 0
17 -20 -201 0
-17 20 -201 0
17 20 201 0
21 -22 202 0
-21 -22 -202 0
21 22 -202 0
-21 22 202 0
24 -25 203 0
-24 -25 -203 0
24 25 -203 0
-24 25 203 0
26 -27 204 0
-26 -27 -204 0
26 27 -204 0
-26 27 204 0
29 30 205 0
-29 30 -205 0
29 -30 -205 0
-29 -30 205 0
32 -34 206 0
-32 -34 -206 0
32 34 -206 0
-32 34 206 0
-37 39 207 0
37 39 -207 0
-37 -39 -207 0
37 -39 207 0
43 46 208 0
-43 46 -208 0
43 -46 -208 0
-43 -46 208 0
49 -50 209 0
-49 -50 -209 0
49 50 -209 0
-49 50 209 0
198 -199 210 0
-198 -199 -210 0
198 199 -210 0
-198 199 210 0
200 -201 211 0
-200 -201 -211 0
200 201 -211 0
-200 201 211 0
202 -203 212 0
-202 -203 -212 0
202 203 -212 0
-202 203 212 0
204 -205 213 0
-204 -205 -213 0
204 205 -213 0
-204 205 213 0
206 -207 214 0
-206 -207 -214 0
206 207 -214 0
-206 207 214 0
208 -209 215 0
-208 -209 -215 0
208 209 -215 0
-208 209 215 0
210 -211 216 0
-210 -211 -216 0
210 211 -216 0
-210 211 216 0
212 -213 217 0
-212 -213 -217 0
212 213 -217 0
-212 213 217 0
214 -215 218 0
-214 -215 -218 0
214 215 -218 0
-214 215 218 0
-216 -217 218 0
216 -217 -218 0
-216 217 -218 0
216 217 218 0
-1 -8 219 0
1 -8 -219 0
-1 8 -219 0
1 8 219 0
9 -11 220 0
-9 -11 -220 0
9 11 -220 0
-9 11 220 0
-12 14 221 0
12 14 -221 0
-12 -14 -221 0
12 -14 221 0
16 -18 222 0
-16 -18 -222 0
16 18 -222 0
-16 18 222 0
-22 -27 223 0
22 -27 -223 0
-22 27 -223 0
22 27 223 0
28 -29 224 0
-28 -29 -224 0
28 29 -224 0
-28 29 224 0
-32 -33 225 0
32 -33 -225 0
-32 33 -225 0
32 33 225 0
-35 -36 226 0
35 -36 -226 0
-35 36 -226 0
35 36 226 0
38 40 227 0
-38 40 -227 0
38 -40 -227 0
-38 -40 227 0
-41 -44 228 0
41 -44 -228 0
-41 44 -228 0
41 44 228 0
47 -48 229 0
-47 -48 -229 0
47 48 -229 0
-47 48 229 0
218 -219 230 0
-218 -219 -230 0
218 219 -230 0
-218 219 230 0
220 -221 231 0
-220 -221 -231 0
220 221 -231 0
-220 221 231 0
222 -223 232 0
-222 -223 -232 0
222 223 -232 0
-222 223 232 0
224 -225 233 0
-224 -225 -233 0
224 225 -233 0
-224 225 233 0
226 -227 234 0
-226 -227 -234 0
226 227 -234 0
-226 227 234 0
228 -229 235 0
-228 -229 -235 0
228 229 -235 0
-228 229 235 0
230 -231 236 0
-230 -231 -236 0
230 231 -236 0
-230 231 236 0
232 -233 237 0
-232 -233 -237 0
232 233 -237 0
-232 233 237 0
234 -235 238 0
-234 -235 -238 0
234 235 -238 0
-234 235 238 0
-236 -237 238 0
236 -237 -238 0
-236 237 -238 0
236 237 238 0
1 7 239 0
-1 7 -239 0
1 -7 -239 0
-1 -7 239 0
10 -11 240 0
-10 -11 -240 0
10 11 -240 0
-10 11 240 0
12 13 241 0
-12 13 -241 0
12 -13 -241 0
-12 -13 241 0
14 15 242 0
-14 15 -242 0
14 -15 -242 0
-14 -15 242 0
-17 18 243 0
17 18 -243 0
-17 -18 -243 0
17 -18 243 0
-23 25 244 0
23 25 -244 0
-23 -25 -244 0
23 -25 244 0
-26 27 245 0
26 27 -245 0
-26 -27 -245 0
26 -27 245 0
-28 -32 246 0
28 -32 -246 0
-28 32 -246 0
28 32 246 0
-35 38 247 0
35 38 -247 0
-35 -38 -247 0
35 -38 247 0
39 40 248 0
-39 40 -248 0
39 -40 -248 0
-39 -40 248 0
43 -44 249 0
-43 -44 -249 0
43 44 -249 0
-43 44 249 0
-46 47 250 0
46 47 -250 0
-46 -47 -250 0
46 -47 250 0
-48 -50 251 0
48 -50 -251 0
-48 50 -251 0
48 50 251 0
239 -240 252 0
-239 -240 -252 0
239 240 -252 0
-239 240 252 0
241 -242 253 0
-241 -242 -253 0
241 242 -253 0
-241 242 253 0
243 -244 254 0
-243 -244 -254 0
243 244 -254 0
-243 244 254 0
245 -246 255 0
-245 -246 -255 0
245 246 -255 0
-245 246 255 0
247 -248 256 0
-247 -248 -256 0
247 248 -256 0
-247 248 256 0
249 -250 257 0
-249 -250 -257 0
249 250 -257 0
-249 250 257 0
251 -252 258 0
-251 -252 -258 0
251 252 -258 0
-251 252 258 0
253 -254 259 0
-253 -254 -259 0
253 254 -259 0
-253 254 259 0
255 -256 260 0
-255 -256 -260 0
255 256 -260 0
-255 256 260 0
257 -258 261 0
-257 -258 -261 0
257 258 -261 0
-257 258 261 0
259 -260 262 0
-259 -260 -262 0
259 260 -262 0
-259 260 262 0
261 262 0
-261 -262 0
1 -3 263 0
-1 -3 -263 0
1 3 -263 0
-1 3 263 0
5 6 264 0
-5 6 -264 0
5 -6 -264 0
-5 -6 264 0
7 9 265 0
-7 9 -265 0
7 -9 -265 0
-7 -9 265 0
11 -13 266 0
-11 -13 -266 0
11 13 -266 0
-11 13 266 0
-14 -15 267 0
14 -15 -267 0
-14 15 -267 0
14 15 267 0
-17 -19 268 0
17 -19 -268 0
-17 19 -268 0
17 19 268 0
-20 -23 269 0
20 -23 -269 0
-20 23 -269 0
20 23 269 0
-25 28 270 0
25 28 -270 0
-25 -28 -270 0
25 -28 270 0
-29 -31 271 0
29 -31 -271 0
-29 31 -271 0
29 31 271 0
34 -36 272 0
-34 -36 -272 0
34 36 -272 0
-34 36 272 0
-37 -38 273 0
37 -38 -273 0
-37 38 -273 0
37 38 273 0
-39 40 274 0
39 40 -274 0
-39 -40 -274 0
39 -40 274 0
-41 42 275 0
41 42 -275 0
-41 -42 -275 0
41 -42 275 0
-44 -46 276 0
44 -46 -276 0
-44 46 -276 0
44 46 276 0
262 -263 277 0
-262 -263 -277 0
262 263 -277 0
-262 263 277 0
264 -265 278 0
-264 -265 -278 0
264 265 -278 0
-264 265 278 0
266 -267 279 0
-266 -267 -279 0
266 267 -279 0
-266 267 279 0
268 -269 280 0
-268 -269 -280 0
268 269 -280 0
-268 269 280 0
270 -271 281 0
-270 -271 -281 0
270 271 -281 0
-270 271 281 0
272 -273 282 0
-272 -273 -282 0
272 273 -282 0
-272 273 282 0
274 -275 283 0
-274 -275 -283 0
274 275 -283 0
-274 275 283 0
276 -277 284 0
-276 -277 -284 0
276 277 -284 0
-276 277 284 0
278 -279 285 0
-278 -279 -285 0
278 279 -285 0
-278 279 285 0
280 -281 286 0
-280 -281 -286 0
280 281 -286 0
-280 281 286 0
282 -283 287 0
-282 -283 -287 0
282 283 -287 0
-282 283 287 0
284 -285 288 0
-284 -285 -288 0
284 285 -288 0
-284 285 288 0
286 -287 289 0
-286 -287 -289 0
286 287 -289 0
-286 287 289 0
288 289 0
-288 -289 0
-1 -4 290 0
1 -4 -290 0
-1 4 -290 0
1 4 290 0
-5 -6 291 0
5 -6 -291 0
-5 6 -291 0
5 6 291 0
8 -9 292 0
-8 -9 -292 0
8 9 -292 0
-8 9 292 0
11 12 293 0
-11 12 -293 0
11 -12 -293 0
-11 -12 293 0
-15 -19 294 0
15 -19 -294 0
-15 19 -294 0
15 19 294 0
-22 23 295 0
22 23 -295 0
-22 -23 -295 0
22 -23 295 0
24 27 296 0
-24 27 -296 0
24 -27 -296 0
-24 -27 296 0
28 29 297 0
-28 29 -297 0
28 -29 -297 0
-28 -29 297 0
-30 31 298 0
30 31 -298 0
-30 -31 -298 0
30 -31 298 0
32 33 299 0
-32 33 -299 0
32 -33 -299 0
-32 -33 299 0
-34 -36 300 0
34 -36 -300 0
-34 36 -300 0
34 36 300 0
37 39 301 0
-37 39 -301 0
37 -39 -301 0
-37 -39 301 0
40 41 302 0
-40 41 -302 0
40 -41 -302 0
-40 -41 302 0
289 -290 303 0
-289 -290 -303 0
289 290 -303 0
-289 290 303 0
291 -292 304 0
-291 -292 -304 0
291 292 -304 0
-291 292 304 0
293 -294 305 0
-293 -294 -305 0
293 294 -305 0
-293 294 305 0
295 -296 306 0
-295 -296 -306 0
295 296 -306 0
-295 296 306 0
297 -298 307 0
-297 -298 -307 0
297 298 -307 0
-297 298 307 0
299 -300 308 0
-299 -300 -308 0
299 300 -308 0
-299 300 308 0
301 -302 309 0
-301 -302 -309 0
301 302 -309 0
-301 302 309 0
303 -304 310 0
-303 -304 -310 0
303 304 -310 0
-303 304 310 0
305 -306 311 0
-305 -306 -311 0
305 306 -311 0
-305 306 311 0
307 -308 312 0
-307 -308 -312 0
307 308 -312 0
-307 308 312 0
309 -310 313 0
-309 -310 -313 0
309 310 -313 0
-309 310 313 0
311 -312 314 0
-311 -312 -314 0
311 312 -314 0
-311 312 314 0
313 314 0
-313 -314 0
-6 -9 315 0
6 -9 -315 0
-6 9 -315 0
6 9 315 0
10 -16 316 0
-10 -16 -316 0
10 16 -316 0
-10 16 316 0
18 -19 317 0
-18 -19 -317 0
18 19 -317 0
-18 19 317 0
-21 -23 318 0
21 -23 -318 0
-21 23 -318 0
21 23 318 0
26 -29 319 0
-26 -29 -319 0
26 29 -319 0
-26 29 319 0
30 32 320 0
-30 32 -320 0
30 -32 -320 0
-30 -32 320 0
-34 -35 321 0
34 -35 -321 0
-34 35 -321 0
34 35 321 0
37 -38 322 0
-37 -38 -322 0
37 38 -322 0
-37 38 322 0
-39 -40 323 0
39 -40 -323 0
-39 40 -323 0
39 40 323 0
42 -43 324 0
-42 -43 -324 0
42 43 -324 0
-42 43 324 0
44 -46 325 0
-44 -46 -325 0
44 46 -325 0
-44 46 325 0
-47 48 326 0
47 48 -326 0
-47 -48 -326 0
47 -48 326 0
-49 -50 327 0
49 -50 -327 0
-49 50 -327 0
49 50 327 0
315 -316 328 0
-315 -316 -328 0
315 316 -328 0
-315 316 328 0
317 -318 329 0
-317 -318 -329 0
317 318 -329 0
-317 318 329 0
319 -320 330 0
-319 -320 -330 0
319 320 -330 0
-319 320 330 0
321 -322 331 0
-321 -322 -331 0
321 322 -331 0
-321 322 331 0
323 -324 332 0
-323 -324 -332 0
323 324 -332 0
-323 324 332 0
325 -326 333 0
-325 -326 -333 0
325 326 -333 0
-325 326 333 0
327 -328 334 0
-327 -328 -334 0
327 328 -334 0
-327 328 334 0
329 -330 335 0
-329 -330 -335 0
329 330 -335 0
-329 330 335 0
331 -332 336 0
-331 -332 -336 0
331 332 -336 0
-331 332 336 0
333 -334 337 0
-333 -334 -337 0
333 334 -337 0
-333 334 337 0
335 -336 338 0
-335 -336 -338 0
335 336 -338 0
-335 336 338 0
337 338 0
-337 -338 0
1 -2 339 0
-1 -2 -339 0
1 2 -339 0
-1 2 339 0
-5 7 340 0
5 7 -340 0
-5 -7 -340 0
5 -7 340 0
-8 11 341 0
8 11 -341 0
-8 -11 -341 0
8 -11 341 0
-15 16 342 0
15 16 -342 0
-15 -16 -342 0
15 -16 342 0
-17 19 343 0
17 19 -343 0
-17 -19 -343 0
17 -19 343 0
20 -22 344 0
-20 -22 -344 0
20 22 -344 0
-20 22 344 0
24 25 345 0
-24 25 -345 0
24 -25 -345 0
-24 -25 345 0
26 28 346 0
-26 28 -346 0
26 -28 -346 0
-26 -28 346 0
32 -34 347 0
-32 -34 -347 0
32 34 -347 0
-32 34 347 0
35 -36 348 0
-35 -36 -348 0
35 36 -348 0
-35 36 348 0
-42 43 349 0
42 43 -349 0
-42 -43 -349 0
42 -43 349 0
45 -47 350 0
-45 -47 -350 0
45 47 -350 0
-45 47 350 0
339 -340 351 0
-339 -340 -351 0
339 340 -351 0
-339 340 351 0
341 -342 352 0
-341 -342 -352 0
341 342 -352 0
-341 342 352 0
343 -344 353 0
-343 -344 -353 0
343 344 -353 0
-343 344 353 0
345 -346 354 0
-345 -346 -354 0
345 346 -354 0
-345 346 354 0
347 -348 355 0
-347 -348 -355 0
347 348 -355 0
-347 348 355 0
349 -350 356 0
-349 -350 -356 0
349 350 -356 0
-349 350 356 0
351 -352 357 0
-351 -352 -357 0
351 352 -357 0
-351 352 357 0
353 -354 358 0
-353 -354 -358 0
353 354 -358 0
-353 354 358 0
355 -356 359 0
-355 -356 -359 0
355 356 -359 0
-355 356 359 0
-357 -358 359 0
357 -358 -359 0
-357 358 -359 0
357 358 359 0
-1 2 360 0
1 2 -360 0
-1 -2 -360 0
1 -2 360 0
-3 -4 361 0
3 -4 -361 0
-3 4 -361 0
3 4 361 0
-6 -8 362 0
6 -8 -362 0
-6 8 -362 0
6 8 362 0
9 11 363 0
-9 11 -363 0
9 -11 -363 0
-9 -11 363 0
-12 -15 364 0
12 -15 -364 0
-12 15 -364 0
12 15 364 0
16 20 365 0
-16 20 -365 0
16 -20 -365 0
-16 -20 365 0
-21 23 366 0
21 23 -366 0
-21 -23 -366 0
21 -23 366 0
-24 -25 367 0
24 -25 -367 0
-24 25 -367 0
24 25 367 0
-30 31 368 0
30 31 -368 0
-30 -31 -368 0
30 -31 368 0
-32 33 369 0
32 33 -369 0
-32 -33 -369 0
32 -33 369 0
-34 36 370 0
34 36 -370 0
-34 -36 -370 0
34 -36 370 0
-38 39 371 0
38 39 -371 0
-38 -39 -371 0
38 -39 371 0
-42 45 372 0
42 45 -372 0
-42 -45 -372 0
42 -45 372 0
-46 -47 373 0
46 -47 -373 0
-46 47 -373 0
46 47 373 0
-49 50 374 0
49 50 -374 0
-49 -50 -374 0
49 -50 374 0
360 -361 375 0
-360 -361 -375 0
360 361 -375 0
-360 361 375 0
362 -363 376 0
-362 -363 -376 0
362 363 -376 0
-362 363 376 0
364 -365 377 0
-364 -365 -377 0
364 365 -377 0
-364 365 377 0
366 -367 378 0
-366 -367 -378 0
366 367 -378 0
-366 367 378 0
368 -369 379 0
-368 -369 -379 0
368 369 -379 0
-368 369 379 0
370 -371 380 0
-370 -371 -380 0
370 371 -380 0
-370 371 380 0
372 -373 381 0
-372 -373 -381 0
372 373 -381 0
-372 373 381 0
374 -375 382 0
-374 -375 -382 0
374 375 -382 0
-374 375 382 0
376 -377 383 0
-376 -377 -383 0
376 377 -383 0
-376 377 383 0
378 -379 384 0
-378 -379 -384 0
378 379 -384 0
-378 379 384 0
380 -381 385 0
-380 -381 -385 0
380 381 -385 0
-380 381 385 0
382 -383 386 0
-382 -383 -386 0
382 383 -386 0
-382 383 386 0
384 -385 387 0
-384 -385 -387 0
384 385 -387 0
-384 385 387 0
386 387 0
-386 -387 0
1 4 388 0
-1 4 -388 0
1 -4 -388 0
-1 -4 388 0
-6 -7 389 0
6 -7 -389 0
-6 7 -389 0
6 7 389 0
8 10 390 0
-8 10 -390 0
8 -10 -390 0
-8 -10 390 0
16 -17 391 0
-16 -17 -391 0
16 17 -391 0
-16 17 391 0
-18 -22 392 0
18 -22 -392 0
-18 22 -392 0
18 22 392 0
-23 -26 393 0
23 -26 -393 0
-23 26 -393 0
23 26 393 0
-29 -30 394 0
29 -30 -394 0
-29 30 -394 0
29 30 394 0
31 34 395 0
-31 34 -395 0
31 -34 -395 0
-31 -34 395 0
-35 36 396 0
35 36 -396 0
-35 -36 -396 0
35 -36 396 0
38 -39 397 0
-38 -39 -397 0
38 39 -397 0
-38 39 397 0
-41 -44 398 0
41 -44 -398 0
-41 44 -398 0
41 44 398 0
45 47 399 0
-45 47 -399 0
45 -47 -399 0
-45 -47 399 0
48 -49 400 0
-48 -49 -400 0
48 49 -400 0
-48 49 400 0
388 -389 401 0
-388 -389 -401 0
388 389 -401 0
-388 389 401 0
390 -391 402 0
-390 -391 -402 0
390 391 -402 0
-390 391 402 0
392 -393 403 0
-392 -393 -403 0
392 393 -403 0
-392 393 403 0
394 -395 404 0
-394 -395 -404 0
394 395 -404 0
-394 395 404 0
396 -397 405 0
-396 -397 -405 0
396 397 -405 0
-396 397 405 0
398 -399 406 0
-398 -399 -406 0
398 399 -406 0
-398 399 406 0
400 -401 407 0
-400 -401 -407 0
400 401 -407 0
-400 401 407 0
402 -403 408 0
-402 -403 -408 0
402 403 -408 0
-402 403 408 0
404 -405 409 0
-404 -405 -409 0
404 405 -409 0
-404 405 409 0
406 -407 410 0
-406 -407 -410 0
406 407 -410 0
-406 407 410 0
408 -409 411 0
-408 -409 -411 0
408 409 -411 0
-408 409 411 0
410 411 0
-410 -411 0
-12 412 0
-24 412 0
-12 -24 413 0
-23 412 0
-12 -23 413 0
-24 -23 413 0
-12 -24 -23 414 0
-22 415 0
-21 415 0
-22 -21 416 0
-20 415 0
-22 -20 416 0
-21 -20 416 0
-22 -21 -20 417 0
-412 418 0
-413 419 0
-414 420 0
-415 418 0
-416 419 0
-417 420 0
-412 -415 419 0
-412 -416 420 0
-412 -417 421 0
-413 -415 420 0
-413 -416 421 0
-413 -417 422 0
-414 -415 421 0
-414 -416 422 0
-414 -417 423 0
-19 424 0
-18 424 0
-19 -18 425 0
-17 424 0
-19 -17 425 0
-18 -17 425 0
-19 -18 -17 426 0
-16 427 0
-15 427 0
-16 -15 428 0
-14 427 0
-16 -14 428 0
-15 -14 428 0
-16 -15 -14 429 0
-424 430 0
-425 431 0
-426 432 0
-427 430 0
-428 431 0
-429 432 0
-424 -427 431 0
-424 -428 432 0
-424 -429 433 0
-425 -427 432 0
-425 -428 433 0
-425 -429 434 0
-426 -427 433 0
-426 -428 434 0
-426 -429 435 0
-418 436 0
-420 437 0
-422 438 0
-430 436 0
-432 437 0
-434 438 0
-418 -430 437 0
-418 -432 438 0
-418 -434 439 0
-420 -430 438 0
-420 -432 439 0
-420 -434 440 0
-422 -430 439 0
-422 -432 440 0
-422 -434 441 0
-419 442 0
-421 443 0
-423 444 0
-431 442 0
-433 443 0
-435 444 0
-419 -431 443 0
-419 -433 444 0
-419 -435 445 0
-421 -431 444 0
-421 -433 445 0
-421 -435 446 0
-423 -431 445 0
-423 -433 446 0
-423 -435 447 0
-437 448 0
-442 448 0
-437 -442 449 0
-438 450 0
-443 450 0
-438 -443 451 0
-439 452 0
-444 452 0
-439 -444 453 0
-440 454 0
-445 454 0
-440 -445 455 0
-441 456 0
-446 456 0
-441 -446 457 0
-13 458 0
-25 458 0
-13 -25 459 0
-11 458 0
-13 -11 459 0
-25 -11 459 0
-13 -25 -11 460 0
-10 461 0
-9 461 0
-10 -9 462 0
-8 461 0
-10 -8 462 0
-9 -8 462 0
-10 -9 -8 463 0
-458 464 0
-459 465 0
-460 466 0
-461 464 0
-462 465 0
-463 466 0
-458 -461 465 0
-458 -462 466 0
-458 -463 467 0
-459 -461 466 0
-459 -462 467 0
-459 -463 468 0
-460 -461 467 0
-460 -462 468 0
-460 -463 469 0
-7 470 0
-6 470 0
-7 -6 471 0
-5 470 0
-7 -5 471 0
-6 -5 471 0
-7 -6 -5 472 0
-4 473 0
-3 473 0
-4 -3 474 0
-2 473 0
-4 -2 474 0
-3 -2 474 0
-4 -3 -2 475 0
-470 476 0
-471 477 0
-472 478 0
-473 476 0
-474 477 0
-475 478 0
-470 -473 477 0
-470 -474 478 0
-470 -475 479 0
-471 -473 478 0
-471 -474 479 0
-471 -475 480 0
-472 -473 479 0
-472 -474 480 0
-472 -475 481 0
-464 482 0
-466 483 0
-468 484 0
-476 482 0
-478 483 0
-480 484 0
-464 -476 483 0
-464 -478 484 0
-464 -480 485 0
-466 -476 484 0
-466 -478 485 0
-466 -480 486 0
-468 -476 485 0
-468 -478 486 0
-468 -480 487 0
-465 488 0
-467 489 0
-469 490 0
-477 488 0
-479 489 0
-481 490 0
-465 -477 489 0
-465 -479 490 0
-465 -481 491 0
-467 -477 490 0
-467 -479 491 0
-467 -481 492 0
-469 -477 491 0
-469 -479 492 0
-469 -481 493 0
-483 494 0
-488 494 0
-483 -488 495 0
-484 496 0
-489 496 0
-484 -489 497 0
-485 498 0
-490 498 0
-485 -490 499 0
-486 500 0
-491 500 0
-486 -491 501 0
-487 502 0
-492 502 0
-487 -492 503 0
-1 504 0
-37 504 0
-1 -37 505 0
-49 504 0
-1 -49 505 0
-37 -49 505 0
-1 -37 -49 506 0
-48 507 0
-47 507 0
-48 -47 508 0
-46 507 0
-48 -46 508 0
-47 -46 508 0
-48 -47 -46 509 0
-504 510 0
-505 511 0
-506 512 0
-507 510 0
-508 511 0
-509 512 0
-504 -507 511 0
-504 -508 512 0
-504 -509 513 0
-505 -507 512 0
-505 -508 513 0
-505 -509 514 0
-506 -507 513 0
-506 -508 514 0
-506 -509 515 0
-45 516 0
-44 516 0
-45 -44 517 0
-43 516 0
-45 -43 517 0
-44 -43 517 0
-45 -44 -43 518 0
-42 519 0
-41 519 0
-42 -41 520 0
-40 519 0
-42 -40 520 0
-41 -40 520 0
-42 -41 -40 521 0
-516 522 0
-517 523 0
-518 524 0
-519 522 0
-520 523 0
-521 524 0
-516 -519 523 0
-516 -520 524 0
-516 -521 525 0
-517 -519 524 0
-517 -520 525 0
-517 -521 526 0
-518 -519 525 0
-518 -520 526 0
-518 -521 527 0
-510 528 0
-512 529 0
-514 530 0
-522 528 0
-524 529 0
-526 530 0
-510 -522 529 0
-510 -524 530 0
-510 -526 531 0
-512 -522 530 0
-512 -524 531 0
-512 -526 532 0
-514 -522 531 0
-514 -524 532 0
-514 -526 533 0
-511 534 0
-513 535 0
-515 536 0
-523 534 0
-525 535 0
-527 536 0
-511 -523 535 0
-511 -525 536 0
-511 -527 537 0
-513 -523 536 0
-513 -525 537 0
-513 -527 538 0
-515 -523 537 0
-515 -525 538 0
-515 -527 539 0
-529 540 0
-534 540 0
-529 -534 541 0
-530 542 0
-535 542 0
-530 -535 543 0
-531 544 0
-536 544 0
-531 -536 545 0
-532 546 0
-537 546 0
-532 -537 547 0
-533 548 0
-538 548 0
-533 -538 549 0
-39 550 0
-38 550 0
-39 -38 551 0
-50 550 0
-39 -50 551 0
-38 -50 551 0
-39 -38 -50 552 0
-36 553 0
-35 553 0
-36 -35 554 0
-34 553 0
-36 -34 554 0
-35 -34 554 0
-36 -35 -34 555 0
-550 556 0
-551 557 0
-552 558 0
-553 556 0
-554 557 0
-555 558 0
-550 -553 557 0
-550 -554 558 0
-550 -555 559 0
-551 -553 558 0
-551 -554 559 0
-551 -555 560 0
-552 -553 559 0
-552 -554 560 0
-552 -555 561 0
-33 562 0
-32 562 0
-33 -32 563 0
-31 562 0
-33 -31 563 0
-32 -31 563 0
-33 -32 -31 564 0
-30 565 0
-29 565 0
-30 -29 566 0
-28 567 0
-27 567 0
-28 -27 568 0
-26 567 0
-28 -26 568 0
-27 -26 568 0
-28 -27 -26 569 0
-565 570 0
-566 571 0
-567 570 0
-568 571 0
-569 572 0
-565 -567 571 0
-565 -568 572 0
-565 -569 573 0
-566 -567 572 0
-566 -568 573 0
-566 -569 574 0
-562 575 0
-563 576 0
-564 577 0
-570 575 0
-571 576 0
-572 577 0
-573 578 0
-574 579 0
-562 -570 576 0
-562 -571 577 0
-562 -572 578 0
-562 -573 579 0
-562 -574 580 0
-563 -570 577 0
-563 -571 578 0
-563 -572 579 0
-563 -573 580 0
-563 -574 581 0
-564 -570 578 0
-564 -571 579 0
-564 -572 580 0
-564 -573 581 0
-564 -574 582 0
-556 583 0
-558 584 0
-560 585 0
-575 583 0
-577 584 0
-579 585 0
-581 586 0
-556 -575 584 0
-556 -577 585 0
-556 -579 586 0
-556 -581 587 0
-558 -575 585 0
-558 -577 586 0
-558 -579 587 0
-558 -581 588 0
-560 -575 586 0
-560 -577 587 0
-560 -579 588 0
-560 -581 589 0
-557 590 0
-559 591 0
-561 592 0
-576 590 0
-578 591 0
-580 592 0
-582 593 0
-557 -576 591 0
-557 -578 592 0
-557 -580 593 0
-557 -582 594 0
-559 -576 592 0
-559 -578 593 0
-559 -580 594 0
-559 -582 595 0
-561 -576 593 0
-561 -578 594 0
-561 -580 595 0
-561 -582 596 0
-584 597 0
-590 597 0
-584 -590 598 0
-585 599 0
-591 599 0
-585 -591 600 0
-586 601 0
-592 601 0
-586 -592 602 0
-587 603 0
-593 603 0
-587 -593 604 0
-588 605 0
-594 605 0
-588 -594 606 0
-589 607 0
-595 607 0
-589 -595 608 0
-528 609 0
-543 610 0
-547 611 0
-583 609 0
-600 610 0
-604 611 0
-608 612 0
-528 -583 610 0
-528 -600 611 0
-528 -604 612 0
-528 -608 613 0
-543 -583 611 0
-543 -600 612 0
-543 -604 613 0
-543 -608 614 0
-547 -583 612 0
-547 -600 613 0
-547 -604 614 0
-541 615 0
-545 616 0
-549 617 0
-598 615 0
-602 616 0
-606 617 0
-541 -598 616 0
-541 -602 617 0
-541 -606 618 0
-545 -598 617 0
-545 -602 618 0
-545 -606 619 0
-549 -598 618 0
-549 -602 619 0
-610 620 0
-615 620 0
-610 -615 621 0
-611 622 0
-616 622 0
-611 -616 623 0
-612 624 0
-617 624 0
-612 -617 625 0
-613 626 0
-618 626 0
-613 -618 627 0
-614 628 0
-619 628 0
-614 -619 629 0
-540 630 0
-544 631 0
-548 632 0
-597 630 0
-601 631 0
-605 632 0
-596 633 0
-540 -597 631 0
-540 -601 632 0
-540 -605 633 0
-540 -596 634 0
-544 -597 632 0
-544 -601 633 0
-544 -605 634 0
-544 -596 635 0
-548 -597 633 0
-548 -601 634 0
-548 -605 635 0
-542 636 0
-546 637 0
-539 638 0
-599 636 0
-603 637 0
-607 638 0
-542 -599 637 0
-542 -603 638 0
-542 -607 639 0
-546 -599 638 0
-546 -603 639 0
-546 -607 640 0
-539 -599 639 0
-539 -603 640 0
-631 641 0
-636 641 0
-631 -636 642 0
-632 643 0
-637 643 0
-632 -637 644 0
-633 645 0
-638 645 0
-633 -638 646 0
-634 647 0
-639 647 0
-634 -639 648 0
-635 649 0
-640 649 0
-620 650 0
-630 650 0
-620 -630 651 0
-621 652 0
-641 652 0
-621 -641 653 0
-622 654 0
-642 654 0
-622 -642 655 0
-623 656 0
-643 656 0
-623 -643 657 0
-624 658 0
-644 658 0
-624 -644 659 0
-625 660 0
-645 660 0
-625 -645 661 0
-626 662 0
-646 662 0
-626 -646 663 0
-627 664 0
-647 664 0
-627 -647 665 0
-628 666 0
-648 666 0
-628 -648 667 0
-629 668 0
-649 668 0
-629 -649 669 0
-482 670 0
-497 671 0
-501 672 0
-609 670 0
-653 671 0
-657 672 0
-661 673 0
-665 674 0
-669 675 0
-482 -609 671 0
-482 -653 672 0
-482 -657 673 0
-482 -661 674 0
-482 -665 675 0
-497 -609 672 0
-497 -653 673 0
-497 -657 674 0
-497 -661 675 0
-501 -609 673 0
-501 -653 674 0
-501 -657 675 0
-495 676 0
-499 677 0
-503 678 0
-651 676 0
-655 677 0
-659 678 0
-663 679 0
-667 680 0
-495 -651 677 0
-495 -655 678 0
-495 -659 679 0
-495 -663 680 0
-499 -651 678 0
-499 -655 679 0
-499 -659 680 0
-503 -651 679 0
-503 -655 680 0
-671 681 0
-676 681 0
-671 -676 682 0
-672 683 0
-677 683 0
-672 -677 684 0
-673 685 0
-678 685 0
-673 -678 686 0
-674 687 0
-679 687 0
-674 -679 688 0
-675 689 0
-680 689 0
-675 -680 690 0
-494 691 0
-498 692 0
-502 693 0
-650 691 0
-654 692 0
-658 693 0
-662 694 0
-666 695 0
-494 -650 692 0
-494 -654 693 0
-494 -658 694 0
-494 -662 695 0
-494 -666 696 0
-498 -650 693 0
-498 -654 694 0
-498 -658 695 0
-498 -662 696 0
-502 -650 694 0
-502 -654 695 0
-502 -658 696 0
-496 697 0
-500 698 0
-493 699 0
-652 697 0
-656 698 0
-660 699 0
-664 700 0
-668 701 0
-496 -652 698 0
-496 -656 699 0
-496 -660 700 0
-496 -664 701 0
-500 -652 699 0
-500 -656 700 0
-500 -660 701 0
-493 -652 700 0
-493 -656 701 0
-692 702 0
-697 702 0
-692 -697 703 0
-693 704 0
-698 704 0
-693 -698 705 0
-694 706 0
-699 706 0
-694 -699 707 0
-695 708 0
-700 708 0
-695 -700 709 0
-696 710 0
-701 710 0
-681 711 0
-691 711 0
-681 -691 712 0
-682 713 0
-702 713 0
-682 -702 714 0
-683 715 0
-703 715 0
-683 -703 716 0
-684 717 0
-704 717 0
-684 -704 718 0
-685 719 0
-705 719 0
-685 -705 720 0
-686 721 0
-706 721 0
-686 -706 722 0
-687 723 0
-707 723 0
-687 -707 724 0
-688 725 0
-708 725 0
-688 -708 726 0
-689 727 0
-709 727 0
-689 -709 728 0
-690 729 0
-710 729 0
-690 -710 730 0
-436 731 0
-451 732 0
-455 733 0
-670 731 0
-714 732 0
-718 733 0
-722 734 0
-726 735 0
-730 736 0
-436 -670 732 0
-436 -714 733 0
-436 -718 734 0
-436 -722 735 0
-436 -726 736 0
-451 -670 733 0
-451 -714 734 0
-451 -718 735 0
-451 -722 736 0
-455 -670 734 0
-455 -714 735 0
-455 -718 736 0
-449 737 0
-453 738 0
-457 739 0
-712 737 0
-716 738 0
-720 739 0
-724 740 0
-728 741 0
-449 -712 738 0
-449 -716 739 0
-449 -720 740 0
-449 -724 741 0
-453 -712 739 0
-453 -716 740 0
-453 -720 741 0
-457 -712 740 0
-457 -716 741 0
-732 742 0
-737 742 0
-732 -737 743 0
-733 744 0
-738 744 0
-733 -738 745 0
-734 746 0
-739 746 0
-734 -739 747 0
-735 748 0
-740 748 0
-735 -740 749 0
-736 750 0
-741 750 0
-736 -741 751 0
-448 752 0
-452 753 0
-456 754 0
-711 752 0
-715 753 0
-719 754 0
-723 755 0
-727 756 0
-448 -711 753 0
-448 -715 754 0
-448 -719 755 0
-448 -723 756 0
-448 -727 757 0
-452 -711 754 0
-452 -715 755 0
-452 -719 756 0
-452 -723 757 0
-456 -711 755 0
-456 -715 756 0
-456 -719 757 0
-450 758 0
-454 759 0
-447 760 0
-713 758 0
-717 759 0
-721 760 0
-725 761 0
-729 762 0
-450 -713 759 0
-450 -717 760 0
-450 -721 761 0
-450 -725 762 0
-454 -713 760 0
-454 -717 761 0
-454 -721 762 0
-447 -713 761 0
-447 -717 762 0
-753 763 0
-758 763 0
-753 -758 764 0
-754 765 0
-759 765 0
-754 -759 766 0
-755 767 0
-760 767 0
-755 -760 768 0
-756 769 0
-761 769 0
-756 -761 770 0
-757 771 0
-762 771 0
-742 772 0
-752 772 0
-742 -752 773 0
-743 774 0
-763 774 0
-743 -763 775 0
-744 776 0
-764 776 0
-744 -764 777 0
-745 778 0
-765 778 0
-745 -765 779 0
-746 780 0
-766 780 0
-746 -766 781 0
-747 782 0
-767 782 0
-747 -767 783 0
-748 784 0
-768 784 0
-748 -768 785 0
-749 786 0
-769 786 0
-749 -769 787 0
-750 788 0
-770 788 0
-750 -770 789 0
-751 790 0
-771 790 0
-751 -771 791 0
-791 0
